n_res = 4;
rc = [ 0, 0, 0, 0 ];
n_tasks = 30;
d = [ 7, 10, 7, 9, 2, 3, 8, 2, 3, 6, 8, 9, 2, 3, 8, 6, 9, 8, 1, 2, 7, 10, 1, 1, 5, 7, 6, 3, 5, 1 ];
rr = [| 0, 0, 0, 0, 0, 0, 0, 0, 0, 0, 0, 0, 0, 0, 0, 0, 0, 0, 0, 0, 0, 0, 0, 0, 0, 0, 0, 0, 0, 0
      | 0, 0, 0, 0, 0, 0, 0, 0, 0, 0, 0, 0, 0, 0, 0, 0, 0, 0, 0, 0, 0, 0, 0, 0, 0, 0, 0, 0, 0, 0
      | 0, 0, 0, 0, 0, 0, 0, 0, 0, 0, 0, 0, 0, 0, 0, 0, 0, 0, 0, 0, 0, 0, 0, 0, 0, 0, 0, 0, 0, 0
      | 0, 0, 0, 0, 0, 0, 0, 0, 0, 0, 0, 0, 0, 0, 0, 0, 0, 0, 0, 0, 0, 0, 0, 0, 0, 0, 0, 0, 0, 0 |];
suc = [ { 4, 8, 14 },
       { 7, 9 },
       { 5, 6, 21 },
       { 15, 17, 25 },
       { 23 },
       { 12, 13, 16 },
       { 10, 24 },
       { 11 },
       { 17 },
       { 18 },
       { 19, 30 },
       { 24 },
       { 14, 18 },
       { 22, 28 },
       { 23 },
       { 28 },
       { 26 },
       { 20, 29 },
       { 23 },
       { 26, 27 },
       { 25 },
       { 29 },
       { 26 },
       { 29 },
       { 27 },
       { 28 },
       { 30 },
       {  },
       {  },
       {  } ];
